Minimize
obj: 0 a_0_0_0_0 + 0 a_0_0_0_1 + 0 a_0_0_0_2 + 0 a_0_0_0_3 + 0 a_0_0_0_4 + 0 a_0_0_0_5 + 0 a_0_1_0_0 + 0 a_0_1_0_1 + 0 a_0_1_0_2 + 0 a_0_1_0_3 + 0 a_0_1_0_4 + 0 a_0_1_0_5 + 0 a_0_2_0_0 + 0 a_0_2_0_1 + 0 a_0_2_0_2 + 0 a_0_2_0_3 + 0 a_0_2_0_4 + 0 a_0_2_0_5 + 0 a_0_3_0_0 + 0 a_0_3_0_1 + 0 a_0_3_0_2 + 0 a_0_3_0_3 + 0 a_0_3_0_4 + 0 a_0_3_0_5 + 0 a_0_4_0_0 + 0 a_0_4_0_1 + 0 a_0_4_0_2 + 0 a_0_4_0_3 + 0 a_0_4_0_4 + 0 a_0_4_0_5 + 0 a_0_5_0_0 + 0 a_0_5_0_1 + 0 a_0_5_0_2 + 0 a_0_5_0_3 + 0 a_0_5_0_4 + 0 a_0_5_0_5 + 0 a_0_0_1_0 + 9360 a_0_0_1_1 + 21552 a_0_0_1_2 + 20352 a_0_0_1_3 + 16704 a_0_0_1_4 + 16560 a_0_0_1_5 + 9360 a_0_1_1_0 + 0 a_0_1_1_1 + 0 a_0_1_1_2 + 21408 a_0_1_1_3 + 11472 a_0_1_1_4 + 3792 a_0_1_1_5 + 21552 a_0_2_1_0 + 0 a_0_2_1_1 + 0 a_0_2_1_2 + 23376 a_0_2_1_3 + 17376 a_0_2_1_4 + 15648 a_0_2_1_5 + 20352 a_0_3_1_0 + 21408 a_0_3_1_1 + 23376 a_0_3_1_2 + 0 a_0_3_1_3 + 2880 a_0_3_1_4 + 12528 a_0_3_1_5 + 16704 a_0_4_1_0 + 11472 a_0_4_1_1 + 17376 a_0_4_1_2 + 2880 a_0_4_1_3 + 0 a_0_4_1_4 + 10992 a_0_4_1_5 + 16560 a_0_5_1_0 + 3792 a_0_5_1_1 + 15648 a_0_5_1_2 + 12528 a_0_5_1_3 + 10992 a_0_5_1_4 + 0 a_0_5_1_5 + 0 a_0_0_2_0 + 0 a_0_0_2_1 + 0 a_0_0_2_2 + 0 a_0_0_2_3 + 0 a_0_0_2_4 + 0 a_0_0_2_5 + 0 a_0_1_2_0 + 0 a_0_1_2_1 + 0 a_0_1_2_2 + 0 a_0_1_2_3 + 0 a_0_1_2_4 + 0 a_0_1_2_5 + 0 a_0_2_2_0 + 0 a_0_2_2_1 + 0 a_0_2_2_2 + 0 a_0_2_2_3 + 0 a_0_2_2_4 + 0 a_0_2_2_5 + 0 a_0_3_2_0 + 0 a_0_3_2_1 + 0 a_0_3_2_2 + 0 a_0_3_2_3 + 0 a_0_3_2_4 + 0 a_0_3_2_5 + 0 a_0_4_2_0 + 0 a_0_4_2_1 + 0 a_0_4_2_2 + 0 a_0_4_2_3 + 0 a_0_4_2_4 + 0 a_0_4_2_5 + 0 a_0_5_2_0 + 0 a_0_5_2_1 + 0 a_0_5_2_2 + 0 a_0_5_2_3 + 0 a_0_5_2_4 + 0 a_0_5_2_5 + 0 a_1_0_0_0 + 9360 a_1_0_0_1 + 21552 a_1_0_0_2 + 20352 a_1_0_0_3 + 16704 a_1_0_0_4 + 16560 a_1_0_0_5 + 9360 a_1_1_0_0 + 0 a_1_1_0_1 + 0 a_1_1_0_2 + 21408 a_1_1_0_3 + 11472 a_1_1_0_4 + 3792 a_1_1_0_5 + 21552 a_1_2_0_0 + 0 a_1_2_0_1 + 0 a_1_2_0_2 + 23376 a_1_2_0_3 + 17376 a_1_2_0_4 + 15648 a_1_2_0_5 + 20352 a_1_3_0_0 + 21408 a_1_3_0_1 + 23376 a_1_3_0_2 + 0 a_1_3_0_3 + 2880 a_1_3_0_4 + 12528 a_1_3_0_5 + 16704 a_1_4_0_0 + 11472 a_1_4_0_1 + 17376 a_1_4_0_2 + 2880 a_1_4_0_3 + 0 a_1_4_0_4 + 10992 a_1_4_0_5 + 16560 a_1_5_0_0 + 3792 a_1_5_0_1 + 15648 a_1_5_0_2 + 12528 a_1_5_0_3 + 10992 a_1_5_0_4 + 0 a_1_5_0_5 + 0 a_1_0_1_0 + 0 a_1_0_1_1 + 0 a_1_0_1_2 + 0 a_1_0_1_3 + 0 a_1_0_1_4 + 0 a_1_0_1_5 + 0 a_1_1_1_0 + 0 a_1_1_1_1 + 0 a_1_1_1_2 + 0 a_1_1_1_3 + 0 a_1_1_1_4 + 0 a_1_1_1_5 + 0 a_1_2_1_0 + 0 a_1_2_1_1 + 0 a_1_2_1_2 + 0 a_1_2_1_3 + 0 a_1_2_1_4 + 0 a_1_2_1_5 + 0 a_1_3_1_0 + 0 a_1_3_1_1 + 0 a_1_3_1_2 + 0 a_1_3_1_3 + 0 a_1_3_1_4 + 0 a_1_3_1_5 + 0 a_1_4_1_0 + 0 a_1_4_1_1 + 0 a_1_4_1_2 + 0 a_1_4_1_3 + 0 a_1_4_1_4 + 0 a_1_4_1_5 + 0 a_1_5_1_0 + 0 a_1_5_1_1 + 0 a_1_5_1_2 + 0 a_1_5_1_3 + 0 a_1_5_1_4 + 0 a_1_5_1_5 + 0 a_1_0_2_0 + 1755 a_1_0_2_1 + 4041 a_1_0_2_2 + 3816 a_1_0_2_3 + 3132 a_1_0_2_4 + 3105 a_1_0_2_5 + 1755 a_1_1_2_0 + 0 a_1_1_2_1 + 0 a_1_1_2_2 + 4014 a_1_1_2_3 + 2151 a_1_1_2_4 + 711 a_1_1_2_5 + 4041 a_1_2_2_0 + 0 a_1_2_2_1 + 0 a_1_2_2_2 + 4383 a_1_2_2_3 + 3258 a_1_2_2_4 + 2934 a_1_2_2_5 + 3816 a_1_3_2_0 + 4014 a_1_3_2_1 + 4383 a_1_3_2_2 + 0 a_1_3_2_3 + 540 a_1_3_2_4 + 2349 a_1_3_2_5 + 3132 a_1_4_2_0 + 2151 a_1_4_2_1 + 3258 a_1_4_2_2 + 540 a_1_4_2_3 + 0 a_1_4_2_4 + 2061 a_1_4_2_5 + 3105 a_1_5_2_0 + 711 a_1_5_2_1 + 2934 a_1_5_2_2 + 2349 a_1_5_2_3 + 2061 a_1_5_2_4 + 0 a_1_5_2_5 + 0 a_2_0_0_0 + 0 a_2_0_0_1 + 0 a_2_0_0_2 + 0 a_2_0_0_3 + 0 a_2_0_0_4 + 0 a_2_0_0_5 + 0 a_2_1_0_0 + 0 a_2_1_0_1 + 0 a_2_1_0_2 + 0 a_2_1_0_3 + 0 a_2_1_0_4 + 0 a_2_1_0_5 + 0 a_2_2_0_0 + 0 a_2_2_0_1 + 0 a_2_2_0_2 + 0 a_2_2_0_3 + 0 a_2_2_0_4 + 0 a_2_2_0_5 + 0 a_2_3_0_0 + 0 a_2_3_0_1 + 0 a_2_3_0_2 + 0 a_2_3_0_3 + 0 a_2_3_0_4 + 0 a_2_3_0_5 + 0 a_2_4_0_0 + 0 a_2_4_0_1 + 0 a_2_4_0_2 + 0 a_2_4_0_3 + 0 a_2_4_0_4 + 0 a_2_4_0_5 + 0 a_2_5_0_0 + 0 a_2_5_0_1 + 0 a_2_5_0_2 + 0 a_2_5_0_3 + 0 a_2_5_0_4 + 0 a_2_5_0_5 + 0 a_2_0_1_0 + 1755 a_2_0_1_1 + 4041 a_2_0_1_2 + 3816 a_2_0_1_3 + 3132 a_2_0_1_4 + 3105 a_2_0_1_5 + 1755 a_2_1_1_0 + 0 a_2_1_1_1 + 0 a_2_1_1_2 + 4014 a_2_1_1_3 + 2151 a_2_1_1_4 + 711 a_2_1_1_5 + 4041 a_2_2_1_0 + 0 a_2_2_1_1 + 0 a_2_2_1_2 + 4383 a_2_2_1_3 + 3258 a_2_2_1_4 + 2934 a_2_2_1_5 + 3816 a_2_3_1_0 + 4014 a_2_3_1_1 + 4383 a_2_3_1_2 + 0 a_2_3_1_3 + 540 a_2_3_1_4 + 2349 a_2_3_1_5 + 3132 a_2_4_1_0 + 2151 a_2_4_1_1 + 3258 a_2_4_1_2 + 540 a_2_4_1_3 + 0 a_2_4_1_4 + 2061 a_2_4_1_5 + 3105 a_2_5_1_0 + 711 a_2_5_1_1 + 2934 a_2_5_1_2 + 2349 a_2_5_1_3 + 2061 a_2_5_1_4 + 0 a_2_5_1_5 + 0 a_2_0_2_0 + 0 a_2_0_2_1 + 0 a_2_0_2_2 + 0 a_2_0_2_3 + 0 a_2_0_2_4 + 0 a_2_0_2_5 + 0 a_2_1_2_0 + 0 a_2_1_2_1 + 0 a_2_1_2_2 + 0 a_2_1_2_3 + 0 a_2_1_2_4 + 0 a_2_1_2_5 + 0 a_2_2_2_0 + 0 a_2_2_2_1 + 0 a_2_2_2_2 + 0 a_2_2_2_3 + 0 a_2_2_2_4 + 0 a_2_2_2_5 + 0 a_2_3_2_0 + 0 a_2_3_2_1 + 0 a_2_3_2_2 + 0 a_2_3_2_3 + 0 a_2_3_2_4 + 0 a_2_3_2_5 + 0 a_2_4_2_0 + 0 a_2_4_2_1 + 0 a_2_4_2_2 + 0 a_2_4_2_3 + 0 a_2_4_2_4 + 0 a_2_4_2_5 + 0 a_2_5_2_0 + 0 a_2_5_2_1 + 0 a_2_5_2_2 + 0 a_2_5_2_3 + 0 a_2_5_2_4 + 0 a_2_5_2_5
Subject To
c0: 793 a_0_0 + 761 a_0_1 + 244 a_0_2 + 554 a_0_3 + 312 a_0_4 + 727 a_0_5 <= 1500
c1: 793 a_1_0 + 761 a_1_1 + 244 a_1_2 + 554 a_1_3 + 312 a_1_4 + 727 a_1_5 <= 738
c2: 793 a_2_0 + 761 a_2_1 + 244 a_2_2 + 554 a_2_3 + 312 a_2_4 + 727 a_2_5 <= 2684
c3: a_0_0 + a_1_0 + a_2_0 = 1
c4: a_0_1 + a_1_1 + a_2_1 = 1
c5: a_0_2 + a_1_2 + a_2_2 = 1
c6: a_0_3 + a_1_3 + a_2_3 = 1
c7: a_0_4 + a_1_4 + a_2_4 = 1
c8: a_0_5 + a_1_5 + a_2_5 = 1
c0: -a_0_0_0_0 + a_0_0 + a_0_0 <= 1
c1: -a_0_0_0_1 + a_0_0 + a_0_1 <= 1
c2: -a_0_0_0_2 + a_0_0 + a_0_2 <= 1
c3: -a_0_0_0_3 + a_0_0 + a_0_3 <= 1
c4: -a_0_0_0_4 + a_0_0 + a_0_4 <= 1
c5: -a_0_0_0_5 + a_0_0 + a_0_5 <= 1
c6: -a_0_1_0_0 + a_0_1 + a_0_0 <= 1
c7: -a_0_1_0_1 + a_0_1 + a_0_1 <= 1
c8: -a_0_1_0_2 + a_0_1 + a_0_2 <= 1
c9: -a_0_1_0_3 + a_0_1 + a_0_3 <= 1
c10: -a_0_1_0_4 + a_0_1 + a_0_4 <= 1
c11: -a_0_1_0_5 + a_0_1 + a_0_5 <= 1
c12: -a_0_2_0_0 + a_0_2 + a_0_0 <= 1
c13: -a_0_2_0_1 + a_0_2 + a_0_1 <= 1
c14: -a_0_2_0_2 + a_0_2 + a_0_2 <= 1
c15: -a_0_2_0_3 + a_0_2 + a_0_3 <= 1
c16: -a_0_2_0_4 + a_0_2 + a_0_4 <= 1
c17: -a_0_2_0_5 + a_0_2 + a_0_5 <= 1
c18: -a_0_3_0_0 + a_0_3 + a_0_0 <= 1
c19: -a_0_3_0_1 + a_0_3 + a_0_1 <= 1
c20: -a_0_3_0_2 + a_0_3 + a_0_2 <= 1
c21: -a_0_3_0_3 + a_0_3 + a_0_3 <= 1
c22: -a_0_3_0_4 + a_0_3 + a_0_4 <= 1
c23: -a_0_3_0_5 + a_0_3 + a_0_5 <= 1
c24: -a_0_4_0_0 + a_0_4 + a_0_0 <= 1
c25: -a_0_4_0_1 + a_0_4 + a_0_1 <= 1
c26: -a_0_4_0_2 + a_0_4 + a_0_2 <= 1
c27: -a_0_4_0_3 + a_0_4 + a_0_3 <= 1
c28: -a_0_4_0_4 + a_0_4 + a_0_4 <= 1
c29: -a_0_4_0_5 + a_0_4 + a_0_5 <= 1
c30: -a_0_5_0_0 + a_0_5 + a_0_0 <= 1
c31: -a_0_5_0_1 + a_0_5 + a_0_1 <= 1
c32: -a_0_5_0_2 + a_0_5 + a_0_2 <= 1
c33: -a_0_5_0_3 + a_0_5 + a_0_3 <= 1
c34: -a_0_5_0_4 + a_0_5 + a_0_4 <= 1
c35: -a_0_5_0_5 + a_0_5 + a_0_5 <= 1
c36: -a_0_0_1_0 + a_0_0 + a_1_0 <= 1
c37: -a_0_0_1_1 + a_0_0 + a_1_1 <= 1
c38: -a_0_0_1_2 + a_0_0 + a_1_2 <= 1
c39: -a_0_0_1_3 + a_0_0 + a_1_3 <= 1
c40: -a_0_0_1_4 + a_0_0 + a_1_4 <= 1
c41: -a_0_0_1_5 + a_0_0 + a_1_5 <= 1
c42: -a_0_1_1_0 + a_0_1 + a_1_0 <= 1
c43: -a_0_1_1_1 + a_0_1 + a_1_1 <= 1
c44: -a_0_1_1_2 + a_0_1 + a_1_2 <= 1
c45: -a_0_1_1_3 + a_0_1 + a_1_3 <= 1
c46: -a_0_1_1_4 + a_0_1 + a_1_4 <= 1
c47: -a_0_1_1_5 + a_0_1 + a_1_5 <= 1
c48: -a_0_2_1_0 + a_0_2 + a_1_0 <= 1
c49: -a_0_2_1_1 + a_0_2 + a_1_1 <= 1
c50: -a_0_2_1_2 + a_0_2 + a_1_2 <= 1
c51: -a_0_2_1_3 + a_0_2 + a_1_3 <= 1
c52: -a_0_2_1_4 + a_0_2 + a_1_4 <= 1
c53: -a_0_2_1_5 + a_0_2 + a_1_5 <= 1
c54: -a_0_3_1_0 + a_0_3 + a_1_0 <= 1
c55: -a_0_3_1_1 + a_0_3 + a_1_1 <= 1
c56: -a_0_3_1_2 + a_0_3 + a_1_2 <= 1
c57: -a_0_3_1_3 + a_0_3 + a_1_3 <= 1
c58: -a_0_3_1_4 + a_0_3 + a_1_4 <= 1
c59: -a_0_3_1_5 + a_0_3 + a_1_5 <= 1
c60: -a_0_4_1_0 + a_0_4 + a_1_0 <= 1
c61: -a_0_4_1_1 + a_0_4 + a_1_1 <= 1
c62: -a_0_4_1_2 + a_0_4 + a_1_2 <= 1
c63: -a_0_4_1_3 + a_0_4 + a_1_3 <= 1
c64: -a_0_4_1_4 + a_0_4 + a_1_4 <= 1
c65: -a_0_4_1_5 + a_0_4 + a_1_5 <= 1
c66: -a_0_5_1_0 + a_0_5 + a_1_0 <= 1
c67: -a_0_5_1_1 + a_0_5 + a_1_1 <= 1
c68: -a_0_5_1_2 + a_0_5 + a_1_2 <= 1
c69: -a_0_5_1_3 + a_0_5 + a_1_3 <= 1
c70: -a_0_5_1_4 + a_0_5 + a_1_4 <= 1
c71: -a_0_5_1_5 + a_0_5 + a_1_5 <= 1
c72: -a_0_0_2_0 + a_0_0 + a_2_0 <= 1
c73: -a_0_0_2_1 + a_0_0 + a_2_1 <= 1
c74: -a_0_0_2_2 + a_0_0 + a_2_2 <= 1
c75: -a_0_0_2_3 + a_0_0 + a_2_3 <= 1
c76: -a_0_0_2_4 + a_0_0 + a_2_4 <= 1
c77: -a_0_0_2_5 + a_0_0 + a_2_5 <= 1
c78: -a_0_1_2_0 + a_0_1 + a_2_0 <= 1
c79: -a_0_1_2_1 + a_0_1 + a_2_1 <= 1
c80: -a_0_1_2_2 + a_0_1 + a_2_2 <= 1
c81: -a_0_1_2_3 + a_0_1 + a_2_3 <= 1
c82: -a_0_1_2_4 + a_0_1 + a_2_4 <= 1
c83: -a_0_1_2_5 + a_0_1 + a_2_5 <= 1
c84: -a_0_2_2_0 + a_0_2 + a_2_0 <= 1
c85: -a_0_2_2_1 + a_0_2 + a_2_1 <= 1
c86: -a_0_2_2_2 + a_0_2 + a_2_2 <= 1
c87: -a_0_2_2_3 + a_0_2 + a_2_3 <= 1
c88: -a_0_2_2_4 + a_0_2 + a_2_4 <= 1
c89: -a_0_2_2_5 + a_0_2 + a_2_5 <= 1
c90: -a_0_3_2_0 + a_0_3 + a_2_0 <= 1
c91: -a_0_3_2_1 + a_0_3 + a_2_1 <= 1
c92: -a_0_3_2_2 + a_0_3 + a_2_2 <= 1
c93: -a_0_3_2_3 + a_0_3 + a_2_3 <= 1
c94: -a_0_3_2_4 + a_0_3 + a_2_4 <= 1
c95: -a_0_3_2_5 + a_0_3 + a_2_5 <= 1
c96: -a_0_4_2_0 + a_0_4 + a_2_0 <= 1
c97: -a_0_4_2_1 + a_0_4 + a_2_1 <= 1
c98: -a_0_4_2_2 + a_0_4 + a_2_2 <= 1
c99: -a_0_4_2_3 + a_0_4 + a_2_3 <= 1
c100: -a_0_4_2_4 + a_0_4 + a_2_4 <= 1
c101: -a_0_4_2_5 + a_0_4 + a_2_5 <= 1
c102: -a_0_5_2_0 + a_0_5 + a_2_0 <= 1
c103: -a_0_5_2_1 + a_0_5 + a_2_1 <= 1
c104: -a_0_5_2_2 + a_0_5 + a_2_2 <= 1
c105: -a_0_5_2_3 + a_0_5 + a_2_3 <= 1
c106: -a_0_5_2_4 + a_0_5 + a_2_4 <= 1
c107: -a_0_5_2_5 + a_0_5 + a_2_5 <= 1
c108: -a_1_0_0_0 + a_1_0 + a_0_0 <= 1
c109: -a_1_0_0_1 + a_1_0 + a_0_1 <= 1
c110: -a_1_0_0_2 + a_1_0 + a_0_2 <= 1
c111: -a_1_0_0_3 + a_1_0 + a_0_3 <= 1
c112: -a_1_0_0_4 + a_1_0 + a_0_4 <= 1
c113: -a_1_0_0_5 + a_1_0 + a_0_5 <= 1
c114: -a_1_1_0_0 + a_1_1 + a_0_0 <= 1
c115: -a_1_1_0_1 + a_1_1 + a_0_1 <= 1
c116: -a_1_1_0_2 + a_1_1 + a_0_2 <= 1
c117: -a_1_1_0_3 + a_1_1 + a_0_3 <= 1
c118: -a_1_1_0_4 + a_1_1 + a_0_4 <= 1
c119: -a_1_1_0_5 + a_1_1 + a_0_5 <= 1
c120: -a_1_2_0_0 + a_1_2 + a_0_0 <= 1
c121: -a_1_2_0_1 + a_1_2 + a_0_1 <= 1
c122: -a_1_2_0_2 + a_1_2 + a_0_2 <= 1
c123: -a_1_2_0_3 + a_1_2 + a_0_3 <= 1
c124: -a_1_2_0_4 + a_1_2 + a_0_4 <= 1
c125: -a_1_2_0_5 + a_1_2 + a_0_5 <= 1
c126: -a_1_3_0_0 + a_1_3 + a_0_0 <= 1
c127: -a_1_3_0_1 + a_1_3 + a_0_1 <= 1
c128: -a_1_3_0_2 + a_1_3 + a_0_2 <= 1
c129: -a_1_3_0_3 + a_1_3 + a_0_3 <= 1
c130: -a_1_3_0_4 + a_1_3 + a_0_4 <= 1
c131: -a_1_3_0_5 + a_1_3 + a_0_5 <= 1
c132: -a_1_4_0_0 + a_1_4 + a_0_0 <= 1
c133: -a_1_4_0_1 + a_1_4 + a_0_1 <= 1
c134: -a_1_4_0_2 + a_1_4 + a_0_2 <= 1
c135: -a_1_4_0_3 + a_1_4 + a_0_3 <= 1
c136: -a_1_4_0_4 + a_1_4 + a_0_4 <= 1
c137: -a_1_4_0_5 + a_1_4 + a_0_5 <= 1
c138: -a_1_5_0_0 + a_1_5 + a_0_0 <= 1
c139: -a_1_5_0_1 + a_1_5 + a_0_1 <= 1
c140: -a_1_5_0_2 + a_1_5 + a_0_2 <= 1
c141: -a_1_5_0_3 + a_1_5 + a_0_3 <= 1
c142: -a_1_5_0_4 + a_1_5 + a_0_4 <= 1
c143: -a_1_5_0_5 + a_1_5 + a_0_5 <= 1
c144: -a_1_0_1_0 + a_1_0 + a_1_0 <= 1
c145: -a_1_0_1_1 + a_1_0 + a_1_1 <= 1
c146: -a_1_0_1_2 + a_1_0 + a_1_2 <= 1
c147: -a_1_0_1_3 + a_1_0 + a_1_3 <= 1
c148: -a_1_0_1_4 + a_1_0 + a_1_4 <= 1
c149: -a_1_0_1_5 + a_1_0 + a_1_5 <= 1
c150: -a_1_1_1_0 + a_1_1 + a_1_0 <= 1
c151: -a_1_1_1_1 + a_1_1 + a_1_1 <= 1
c152: -a_1_1_1_2 + a_1_1 + a_1_2 <= 1
c153: -a_1_1_1_3 + a_1_1 + a_1_3 <= 1
c154: -a_1_1_1_4 + a_1_1 + a_1_4 <= 1
c155: -a_1_1_1_5 + a_1_1 + a_1_5 <= 1
c156: -a_1_2_1_0 + a_1_2 + a_1_0 <= 1
c157: -a_1_2_1_1 + a_1_2 + a_1_1 <= 1
c158: -a_1_2_1_2 + a_1_2 + a_1_2 <= 1
c159: -a_1_2_1_3 + a_1_2 + a_1_3 <= 1
c160: -a_1_2_1_4 + a_1_2 + a_1_4 <= 1
c161: -a_1_2_1_5 + a_1_2 + a_1_5 <= 1
c162: -a_1_3_1_0 + a_1_3 + a_1_0 <= 1
c163: -a_1_3_1_1 + a_1_3 + a_1_1 <= 1
c164: -a_1_3_1_2 + a_1_3 + a_1_2 <= 1
c165: -a_1_3_1_3 + a_1_3 + a_1_3 <= 1
c166: -a_1_3_1_4 + a_1_3 + a_1_4 <= 1
c167: -a_1_3_1_5 + a_1_3 + a_1_5 <= 1
c168: -a_1_4_1_0 + a_1_4 + a_1_0 <= 1
c169: -a_1_4_1_1 + a_1_4 + a_1_1 <= 1
c170: -a_1_4_1_2 + a_1_4 + a_1_2 <= 1
c171: -a_1_4_1_3 + a_1_4 + a_1_3 <= 1
c172: -a_1_4_1_4 + a_1_4 + a_1_4 <= 1
c173: -a_1_4_1_5 + a_1_4 + a_1_5 <= 1
c174: -a_1_5_1_0 + a_1_5 + a_1_0 <= 1
c175: -a_1_5_1_1 + a_1_5 + a_1_1 <= 1
c176: -a_1_5_1_2 + a_1_5 + a_1_2 <= 1
c177: -a_1_5_1_3 + a_1_5 + a_1_3 <= 1
c178: -a_1_5_1_4 + a_1_5 + a_1_4 <= 1
c179: -a_1_5_1_5 + a_1_5 + a_1_5 <= 1
c180: -a_1_0_2_0 + a_1_0 + a_2_0 <= 1
c181: -a_1_0_2_1 + a_1_0 + a_2_1 <= 1
c182: -a_1_0_2_2 + a_1_0 + a_2_2 <= 1
c183: -a_1_0_2_3 + a_1_0 + a_2_3 <= 1
c184: -a_1_0_2_4 + a_1_0 + a_2_4 <= 1
c185: -a_1_0_2_5 + a_1_0 + a_2_5 <= 1
c186: -a_1_1_2_0 + a_1_1 + a_2_0 <= 1
c187: -a_1_1_2_1 + a_1_1 + a_2_1 <= 1
c188: -a_1_1_2_2 + a_1_1 + a_2_2 <= 1
c189: -a_1_1_2_3 + a_1_1 + a_2_3 <= 1
c190: -a_1_1_2_4 + a_1_1 + a_2_4 <= 1
c191: -a_1_1_2_5 + a_1_1 + a_2_5 <= 1
c192: -a_1_2_2_0 + a_1_2 + a_2_0 <= 1
c193: -a_1_2_2_1 + a_1_2 + a_2_1 <= 1
c194: -a_1_2_2_2 + a_1_2 + a_2_2 <= 1
c195: -a_1_2_2_3 + a_1_2 + a_2_3 <= 1
c196: -a_1_2_2_4 + a_1_2 + a_2_4 <= 1
c197: -a_1_2_2_5 + a_1_2 + a_2_5 <= 1
c198: -a_1_3_2_0 + a_1_3 + a_2_0 <= 1
c199: -a_1_3_2_1 + a_1_3 + a_2_1 <= 1
c200: -a_1_3_2_2 + a_1_3 + a_2_2 <= 1
c201: -a_1_3_2_3 + a_1_3 + a_2_3 <= 1
c202: -a_1_3_2_4 + a_1_3 + a_2_4 <= 1
c203: -a_1_3_2_5 + a_1_3 + a_2_5 <= 1
c204: -a_1_4_2_0 + a_1_4 + a_2_0 <= 1
c205: -a_1_4_2_1 + a_1_4 + a_2_1 <= 1
c206: -a_1_4_2_2 + a_1_4 + a_2_2 <= 1
c207: -a_1_4_2_3 + a_1_4 + a_2_3 <= 1
c208: -a_1_4_2_4 + a_1_4 + a_2_4 <= 1
c209: -a_1_4_2_5 + a_1_4 + a_2_5 <= 1
c210: -a_1_5_2_0 + a_1_5 + a_2_0 <= 1
c211: -a_1_5_2_1 + a_1_5 + a_2_1 <= 1
c212: -a_1_5_2_2 + a_1_5 + a_2_2 <= 1
c213: -a_1_5_2_3 + a_1_5 + a_2_3 <= 1
c214: -a_1_5_2_4 + a_1_5 + a_2_4 <= 1
c215: -a_1_5_2_5 + a_1_5 + a_2_5 <= 1
c216: -a_2_0_0_0 + a_2_0 + a_0_0 <= 1
c217: -a_2_0_0_1 + a_2_0 + a_0_1 <= 1
c218: -a_2_0_0_2 + a_2_0 + a_0_2 <= 1
c219: -a_2_0_0_3 + a_2_0 + a_0_3 <= 1
c220: -a_2_0_0_4 + a_2_0 + a_0_4 <= 1
c221: -a_2_0_0_5 + a_2_0 + a_0_5 <= 1
c222: -a_2_1_0_0 + a_2_1 + a_0_0 <= 1
c223: -a_2_1_0_1 + a_2_1 + a_0_1 <= 1
c224: -a_2_1_0_2 + a_2_1 + a_0_2 <= 1
c225: -a_2_1_0_3 + a_2_1 + a_0_3 <= 1
c226: -a_2_1_0_4 + a_2_1 + a_0_4 <= 1
c227: -a_2_1_0_5 + a_2_1 + a_0_5 <= 1
c228: -a_2_2_0_0 + a_2_2 + a_0_0 <= 1
c229: -a_2_2_0_1 + a_2_2 + a_0_1 <= 1
c230: -a_2_2_0_2 + a_2_2 + a_0_2 <= 1
c231: -a_2_2_0_3 + a_2_2 + a_0_3 <= 1
c232: -a_2_2_0_4 + a_2_2 + a_0_4 <= 1
c233: -a_2_2_0_5 + a_2_2 + a_0_5 <= 1
c234: -a_2_3_0_0 + a_2_3 + a_0_0 <= 1
c235: -a_2_3_0_1 + a_2_3 + a_0_1 <= 1
c236: -a_2_3_0_2 + a_2_3 + a_0_2 <= 1
c237: -a_2_3_0_3 + a_2_3 + a_0_3 <= 1
c238: -a_2_3_0_4 + a_2_3 + a_0_4 <= 1
c239: -a_2_3_0_5 + a_2_3 + a_0_5 <= 1
c240: -a_2_4_0_0 + a_2_4 + a_0_0 <= 1
c241: -a_2_4_0_1 + a_2_4 + a_0_1 <= 1
c242: -a_2_4_0_2 + a_2_4 + a_0_2 <= 1
c243: -a_2_4_0_3 + a_2_4 + a_0_3 <= 1
c244: -a_2_4_0_4 + a_2_4 + a_0_4 <= 1
c245: -a_2_4_0_5 + a_2_4 + a_0_5 <= 1
c246: -a_2_5_0_0 + a_2_5 + a_0_0 <= 1
c247: -a_2_5_0_1 + a_2_5 + a_0_1 <= 1
c248: -a_2_5_0_2 + a_2_5 + a_0_2 <= 1
c249: -a_2_5_0_3 + a_2_5 + a_0_3 <= 1
c250: -a_2_5_0_4 + a_2_5 + a_0_4 <= 1
c251: -a_2_5_0_5 + a_2_5 + a_0_5 <= 1
c252: -a_2_0_1_0 + a_2_0 + a_1_0 <= 1
c253: -a_2_0_1_1 + a_2_0 + a_1_1 <= 1
c254: -a_2_0_1_2 + a_2_0 + a_1_2 <= 1
c255: -a_2_0_1_3 + a_2_0 + a_1_3 <= 1
c256: -a_2_0_1_4 + a_2_0 + a_1_4 <= 1
c257: -a_2_0_1_5 + a_2_0 + a_1_5 <= 1
c258: -a_2_1_1_0 + a_2_1 + a_1_0 <= 1
c259: -a_2_1_1_1 + a_2_1 + a_1_1 <= 1
c260: -a_2_1_1_2 + a_2_1 + a_1_2 <= 1
c261: -a_2_1_1_3 + a_2_1 + a_1_3 <= 1
c262: -a_2_1_1_4 + a_2_1 + a_1_4 <= 1
c263: -a_2_1_1_5 + a_2_1 + a_1_5 <= 1
c264: -a_2_2_1_0 + a_2_2 + a_1_0 <= 1
c265: -a_2_2_1_1 + a_2_2 + a_1_1 <= 1
c266: -a_2_2_1_2 + a_2_2 + a_1_2 <= 1
c267: -a_2_2_1_3 + a_2_2 + a_1_3 <= 1
c268: -a_2_2_1_4 + a_2_2 + a_1_4 <= 1
c269: -a_2_2_1_5 + a_2_2 + a_1_5 <= 1
c270: -a_2_3_1_0 + a_2_3 + a_1_0 <= 1
c271: -a_2_3_1_1 + a_2_3 + a_1_1 <= 1
c272: -a_2_3_1_2 + a_2_3 + a_1_2 <= 1
c273: -a_2_3_1_3 + a_2_3 + a_1_3 <= 1
c274: -a_2_3_1_4 + a_2_3 + a_1_4 <= 1
c275: -a_2_3_1_5 + a_2_3 + a_1_5 <= 1
c276: -a_2_4_1_0 + a_2_4 + a_1_0 <= 1
c277: -a_2_4_1_1 + a_2_4 + a_1_1 <= 1
c278: -a_2_4_1_2 + a_2_4 + a_1_2 <= 1
c279: -a_2_4_1_3 + a_2_4 + a_1_3 <= 1
c280: -a_2_4_1_4 + a_2_4 + a_1_4 <= 1
c281: -a_2_4_1_5 + a_2_4 + a_1_5 <= 1
c282: -a_2_5_1_0 + a_2_5 + a_1_0 <= 1
c283: -a_2_5_1_1 + a_2_5 + a_1_1 <= 1
c284: -a_2_5_1_2 + a_2_5 + a_1_2 <= 1
c285: -a_2_5_1_3 + a_2_5 + a_1_3 <= 1
c286: -a_2_5_1_4 + a_2_5 + a_1_4 <= 1
c287: -a_2_5_1_5 + a_2_5 + a_1_5 <= 1
c288: -a_2_0_2_0 + a_2_0 + a_2_0 <= 1
c289: -a_2_0_2_1 + a_2_0 + a_2_1 <= 1
c290: -a_2_0_2_2 + a_2_0 + a_2_2 <= 1
c291: -a_2_0_2_3 + a_2_0 + a_2_3 <= 1
c292: -a_2_0_2_4 + a_2_0 + a_2_4 <= 1
c293: -a_2_0_2_5 + a_2_0 + a_2_5 <= 1
c294: -a_2_1_2_0 + a_2_1 + a_2_0 <= 1
c295: -a_2_1_2_1 + a_2_1 + a_2_1 <= 1
c296: -a_2_1_2_2 + a_2_1 + a_2_2 <= 1
c297: -a_2_1_2_3 + a_2_1 + a_2_3 <= 1
c298: -a_2_1_2_4 + a_2_1 + a_2_4 <= 1
c299: -a_2_1_2_5 + a_2_1 + a_2_5 <= 1
c300: -a_2_2_2_0 + a_2_2 + a_2_0 <= 1
c301: -a_2_2_2_1 + a_2_2 + a_2_1 <= 1
c302: -a_2_2_2_2 + a_2_2 + a_2_2 <= 1
c303: -a_2_2_2_3 + a_2_2 + a_2_3 <= 1
c304: -a_2_2_2_4 + a_2_2 + a_2_4 <= 1
c305: -a_2_2_2_5 + a_2_2 + a_2_5 <= 1
c306: -a_2_3_2_0 + a_2_3 + a_2_0 <= 1
c307: -a_2_3_2_1 + a_2_3 + a_2_1 <= 1
c308: -a_2_3_2_2 + a_2_3 + a_2_2 <= 1
c309: -a_2_3_2_3 + a_2_3 + a_2_3 <= 1
c310: -a_2_3_2_4 + a_2_3 + a_2_4 <= 1
c311: -a_2_3_2_5 + a_2_3 + a_2_5 <= 1
c312: -a_2_4_2_0 + a_2_4 + a_2_0 <= 1
c313: -a_2_4_2_1 + a_2_4 + a_2_1 <= 1
c314: -a_2_4_2_2 + a_2_4 + a_2_2 <= 1
c315: -a_2_4_2_3 + a_2_4 + a_2_3 <= 1
c316: -a_2_4_2_4 + a_2_4 + a_2_4 <= 1
c317: -a_2_4_2_5 + a_2_4 + a_2_5 <= 1
c318: -a_2_5_2_0 + a_2_5 + a_2_0 <= 1
c319: -a_2_5_2_1 + a_2_5 + a_2_1 <= 1
c320: -a_2_5_2_2 + a_2_5 + a_2_2 <= 1
c321: -a_2_5_2_3 + a_2_5 + a_2_3 <= 1
c322: -a_2_5_2_4 + a_2_5 + a_2_4 <= 1
c323: -a_2_5_2_5 + a_2_5 + a_2_5 <= 1
Bounds
0 <= a_0_0 <= 1
0 <= a_0_1 <= 1
0 <= a_0_2 <= 1
0 <= a_0_3 <= 1
0 <= a_0_4 <= 1
0 <= a_0_5 <= 1
0 <= a_1_0 <= 1
0 <= a_1_1 <= 1
0 <= a_1_2 <= 1
0 <= a_1_3 <= 1
0 <= a_1_4 <= 1
0 <= a_1_5 <= 1
0 <= a_2_0 <= 1
0 <= a_2_1 <= 1
0 <= a_2_2 <= 1
0 <= a_2_3 <= 1
0 <= a_2_4 <= 1
0 <= a_2_5 <= 1
0 <= a_0_0_0_0 <= 1
0 <= a_0_0_0_1 <= 1
0 <= a_0_0_0_2 <= 1
0 <= a_0_0_0_3 <= 1
0 <= a_0_0_0_4 <= 1
0 <= a_0_0_0_5 <= 1
0 <= a_0_1_0_0 <= 1
0 <= a_0_1_0_1 <= 1
0 <= a_0_1_0_2 <= 1
0 <= a_0_1_0_3 <= 1
0 <= a_0_1_0_4 <= 1
0 <= a_0_1_0_5 <= 1
0 <= a_0_2_0_0 <= 1
0 <= a_0_2_0_1 <= 1
0 <= a_0_2_0_2 <= 1
0 <= a_0_2_0_3 <= 1
0 <= a_0_2_0_4 <= 1
0 <= a_0_2_0_5 <= 1
0 <= a_0_3_0_0 <= 1
0 <= a_0_3_0_1 <= 1
0 <= a_0_3_0_2 <= 1
0 <= a_0_3_0_3 <= 1
0 <= a_0_3_0_4 <= 1
0 <= a_0_3_0_5 <= 1
0 <= a_0_4_0_0 <= 1
0 <= a_0_4_0_1 <= 1
0 <= a_0_4_0_2 <= 1
0 <= a_0_4_0_3 <= 1
0 <= a_0_4_0_4 <= 1
0 <= a_0_4_0_5 <= 1
0 <= a_0_5_0_0 <= 1
0 <= a_0_5_0_1 <= 1
0 <= a_0_5_0_2 <= 1
0 <= a_0_5_0_3 <= 1
0 <= a_0_5_0_4 <= 1
0 <= a_0_5_0_5 <= 1
0 <= a_0_0_1_0 <= 1
0 <= a_0_0_1_1 <= 1
0 <= a_0_0_1_2 <= 1
0 <= a_0_0_1_3 <= 1
0 <= a_0_0_1_4 <= 1
0 <= a_0_0_1_5 <= 1
0 <= a_0_1_1_0 <= 1
0 <= a_0_1_1_1 <= 1
0 <= a_0_1_1_2 <= 1
0 <= a_0_1_1_3 <= 1
0 <= a_0_1_1_4 <= 1
0 <= a_0_1_1_5 <= 1
0 <= a_0_2_1_0 <= 1
0 <= a_0_2_1_1 <= 1
0 <= a_0_2_1_2 <= 1
0 <= a_0_2_1_3 <= 1
0 <= a_0_2_1_4 <= 1
0 <= a_0_2_1_5 <= 1
0 <= a_0_3_1_0 <= 1
0 <= a_0_3_1_1 <= 1
0 <= a_0_3_1_2 <= 1
0 <= a_0_3_1_3 <= 1
0 <= a_0_3_1_4 <= 1
0 <= a_0_3_1_5 <= 1
0 <= a_0_4_1_0 <= 1
0 <= a_0_4_1_1 <= 1
0 <= a_0_4_1_2 <= 1
0 <= a_0_4_1_3 <= 1
0 <= a_0_4_1_4 <= 1
0 <= a_0_4_1_5 <= 1
0 <= a_0_5_1_0 <= 1
0 <= a_0_5_1_1 <= 1
0 <= a_0_5_1_2 <= 1
0 <= a_0_5_1_3 <= 1
0 <= a_0_5_1_4 <= 1
0 <= a_0_5_1_5 <= 1
0 <= a_0_0_2_0 <= 1
0 <= a_0_0_2_1 <= 1
0 <= a_0_0_2_2 <= 1
0 <= a_0_0_2_3 <= 1
0 <= a_0_0_2_4 <= 1
0 <= a_0_0_2_5 <= 1
0 <= a_0_1_2_0 <= 1
0 <= a_0_1_2_1 <= 1
0 <= a_0_1_2_2 <= 1
0 <= a_0_1_2_3 <= 1
0 <= a_0_1_2_4 <= 1
0 <= a_0_1_2_5 <= 1
0 <= a_0_2_2_0 <= 1
0 <= a_0_2_2_1 <= 1
0 <= a_0_2_2_2 <= 1
0 <= a_0_2_2_3 <= 1
0 <= a_0_2_2_4 <= 1
0 <= a_0_2_2_5 <= 1
0 <= a_0_3_2_0 <= 1
0 <= a_0_3_2_1 <= 1
0 <= a_0_3_2_2 <= 1
0 <= a_0_3_2_3 <= 1
0 <= a_0_3_2_4 <= 1
0 <= a_0_3_2_5 <= 1
0 <= a_0_4_2_0 <= 1
0 <= a_0_4_2_1 <= 1
0 <= a_0_4_2_2 <= 1
0 <= a_0_4_2_3 <= 1
0 <= a_0_4_2_4 <= 1
0 <= a_0_4_2_5 <= 1
0 <= a_0_5_2_0 <= 1
0 <= a_0_5_2_1 <= 1
0 <= a_0_5_2_2 <= 1
0 <= a_0_5_2_3 <= 1
0 <= a_0_5_2_4 <= 1
0 <= a_0_5_2_5 <= 1
0 <= a_1_0_0_0 <= 1
0 <= a_1_0_0_1 <= 1
0 <= a_1_0_0_2 <= 1
0 <= a_1_0_0_3 <= 1
0 <= a_1_0_0_4 <= 1
0 <= a_1_0_0_5 <= 1
0 <= a_1_1_0_0 <= 1
0 <= a_1_1_0_1 <= 1
0 <= a_1_1_0_2 <= 1
0 <= a_1_1_0_3 <= 1
0 <= a_1_1_0_4 <= 1
0 <= a_1_1_0_5 <= 1
0 <= a_1_2_0_0 <= 1
0 <= a_1_2_0_1 <= 1
0 <= a_1_2_0_2 <= 1
0 <= a_1_2_0_3 <= 1
0 <= a_1_2_0_4 <= 1
0 <= a_1_2_0_5 <= 1
0 <= a_1_3_0_0 <= 1
0 <= a_1_3_0_1 <= 1
0 <= a_1_3_0_2 <= 1
0 <= a_1_3_0_3 <= 1
0 <= a_1_3_0_4 <= 1
0 <= a_1_3_0_5 <= 1
0 <= a_1_4_0_0 <= 1
0 <= a_1_4_0_1 <= 1
0 <= a_1_4_0_2 <= 1
0 <= a_1_4_0_3 <= 1
0 <= a_1_4_0_4 <= 1
0 <= a_1_4_0_5 <= 1
0 <= a_1_5_0_0 <= 1
0 <= a_1_5_0_1 <= 1
0 <= a_1_5_0_2 <= 1
0 <= a_1_5_0_3 <= 1
0 <= a_1_5_0_4 <= 1
0 <= a_1_5_0_5 <= 1
0 <= a_1_0_1_0 <= 1
0 <= a_1_0_1_1 <= 1
0 <= a_1_0_1_2 <= 1
0 <= a_1_0_1_3 <= 1
0 <= a_1_0_1_4 <= 1
0 <= a_1_0_1_5 <= 1
0 <= a_1_1_1_0 <= 1
0 <= a_1_1_1_1 <= 1
0 <= a_1_1_1_2 <= 1
0 <= a_1_1_1_3 <= 1
0 <= a_1_1_1_4 <= 1
0 <= a_1_1_1_5 <= 1
0 <= a_1_2_1_0 <= 1
0 <= a_1_2_1_1 <= 1
0 <= a_1_2_1_2 <= 1
0 <= a_1_2_1_3 <= 1
0 <= a_1_2_1_4 <= 1
0 <= a_1_2_1_5 <= 1
0 <= a_1_3_1_0 <= 1
0 <= a_1_3_1_1 <= 1
0 <= a_1_3_1_2 <= 1
0 <= a_1_3_1_3 <= 1
0 <= a_1_3_1_4 <= 1
0 <= a_1_3_1_5 <= 1
0 <= a_1_4_1_0 <= 1
0 <= a_1_4_1_1 <= 1
0 <= a_1_4_1_2 <= 1
0 <= a_1_4_1_3 <= 1
0 <= a_1_4_1_4 <= 1
0 <= a_1_4_1_5 <= 1
0 <= a_1_5_1_0 <= 1
0 <= a_1_5_1_1 <= 1
0 <= a_1_5_1_2 <= 1
0 <= a_1_5_1_3 <= 1
0 <= a_1_5_1_4 <= 1
0 <= a_1_5_1_5 <= 1
0 <= a_1_0_2_0 <= 1
0 <= a_1_0_2_1 <= 1
0 <= a_1_0_2_2 <= 1
0 <= a_1_0_2_3 <= 1
0 <= a_1_0_2_4 <= 1
0 <= a_1_0_2_5 <= 1
0 <= a_1_1_2_0 <= 1
0 <= a_1_1_2_1 <= 1
0 <= a_1_1_2_2 <= 1
0 <= a_1_1_2_3 <= 1
0 <= a_1_1_2_4 <= 1
0 <= a_1_1_2_5 <= 1
0 <= a_1_2_2_0 <= 1
0 <= a_1_2_2_1 <= 1
0 <= a_1_2_2_2 <= 1
0 <= a_1_2_2_3 <= 1
0 <= a_1_2_2_4 <= 1
0 <= a_1_2_2_5 <= 1
0 <= a_1_3_2_0 <= 1
0 <= a_1_3_2_1 <= 1
0 <= a_1_3_2_2 <= 1
0 <= a_1_3_2_3 <= 1
0 <= a_1_3_2_4 <= 1
0 <= a_1_3_2_5 <= 1
0 <= a_1_4_2_0 <= 1
0 <= a_1_4_2_1 <= 1
0 <= a_1_4_2_2 <= 1
0 <= a_1_4_2_3 <= 1
0 <= a_1_4_2_4 <= 1
0 <= a_1_4_2_5 <= 1
0 <= a_1_5_2_0 <= 1
0 <= a_1_5_2_1 <= 1
0 <= a_1_5_2_2 <= 1
0 <= a_1_5_2_3 <= 1
0 <= a_1_5_2_4 <= 1
0 <= a_1_5_2_5 <= 1
0 <= a_2_0_0_0 <= 1
0 <= a_2_0_0_1 <= 1
0 <= a_2_0_0_2 <= 1
0 <= a_2_0_0_3 <= 1
0 <= a_2_0_0_4 <= 1
0 <= a_2_0_0_5 <= 1
0 <= a_2_1_0_0 <= 1
0 <= a_2_1_0_1 <= 1
0 <= a_2_1_0_2 <= 1
0 <= a_2_1_0_3 <= 1
0 <= a_2_1_0_4 <= 1
0 <= a_2_1_0_5 <= 1
0 <= a_2_2_0_0 <= 1
0 <= a_2_2_0_1 <= 1
0 <= a_2_2_0_2 <= 1
0 <= a_2_2_0_3 <= 1
0 <= a_2_2_0_4 <= 1
0 <= a_2_2_0_5 <= 1
0 <= a_2_3_0_0 <= 1
0 <= a_2_3_0_1 <= 1
0 <= a_2_3_0_2 <= 1
0 <= a_2_3_0_3 <= 1
0 <= a_2_3_0_4 <= 1
0 <= a_2_3_0_5 <= 1
0 <= a_2_4_0_0 <= 1
0 <= a_2_4_0_1 <= 1
0 <= a_2_4_0_2 <= 1
0 <= a_2_4_0_3 <= 1
0 <= a_2_4_0_4 <= 1
0 <= a_2_4_0_5 <= 1
0 <= a_2_5_0_0 <= 1
0 <= a_2_5_0_1 <= 1
0 <= a_2_5_0_2 <= 1
0 <= a_2_5_0_3 <= 1
0 <= a_2_5_0_4 <= 1
0 <= a_2_5_0_5 <= 1
0 <= a_2_0_1_0 <= 1
0 <= a_2_0_1_1 <= 1
0 <= a_2_0_1_2 <= 1
0 <= a_2_0_1_3 <= 1
0 <= a_2_0_1_4 <= 1
0 <= a_2_0_1_5 <= 1
0 <= a_2_1_1_0 <= 1
0 <= a_2_1_1_1 <= 1
0 <= a_2_1_1_2 <= 1
0 <= a_2_1_1_3 <= 1
0 <= a_2_1_1_4 <= 1
0 <= a_2_1_1_5 <= 1
0 <= a_2_2_1_0 <= 1
0 <= a_2_2_1_1 <= 1
0 <= a_2_2_1_2 <= 1
0 <= a_2_2_1_3 <= 1
0 <= a_2_2_1_4 <= 1
0 <= a_2_2_1_5 <= 1
0 <= a_2_3_1_0 <= 1
0 <= a_2_3_1_1 <= 1
0 <= a_2_3_1_2 <= 1
0 <= a_2_3_1_3 <= 1
0 <= a_2_3_1_4 <= 1
0 <= a_2_3_1_5 <= 1
0 <= a_2_4_1_0 <= 1
0 <= a_2_4_1_1 <= 1
0 <= a_2_4_1_2 <= 1
0 <= a_2_4_1_3 <= 1
0 <= a_2_4_1_4 <= 1
0 <= a_2_4_1_5 <= 1
0 <= a_2_5_1_0 <= 1
0 <= a_2_5_1_1 <= 1
0 <= a_2_5_1_2 <= 1
0 <= a_2_5_1_3 <= 1
0 <= a_2_5_1_4 <= 1
0 <= a_2_5_1_5 <= 1
0 <= a_2_0_2_0 <= 1
0 <= a_2_0_2_1 <= 1
0 <= a_2_0_2_2 <= 1
0 <= a_2_0_2_3 <= 1
0 <= a_2_0_2_4 <= 1
0 <= a_2_0_2_5 <= 1
0 <= a_2_1_2_0 <= 1
0 <= a_2_1_2_1 <= 1
0 <= a_2_1_2_2 <= 1
0 <= a_2_1_2_3 <= 1
0 <= a_2_1_2_4 <= 1
0 <= a_2_1_2_5 <= 1
0 <= a_2_2_2_0 <= 1
0 <= a_2_2_2_1 <= 1
0 <= a_2_2_2_2 <= 1
0 <= a_2_2_2_3 <= 1
0 <= a_2_2_2_4 <= 1
0 <= a_2_2_2_5 <= 1
0 <= a_2_3_2_0 <= 1
0 <= a_2_3_2_1 <= 1
0 <= a_2_3_2_2 <= 1
0 <= a_2_3_2_3 <= 1
0 <= a_2_3_2_4 <= 1
0 <= a_2_3_2_5 <= 1
0 <= a_2_4_2_0 <= 1
0 <= a_2_4_2_1 <= 1
0 <= a_2_4_2_2 <= 1
0 <= a_2_4_2_3 <= 1
0 <= a_2_4_2_4 <= 1
0 <= a_2_4_2_5 <= 1
0 <= a_2_5_2_0 <= 1
0 <= a_2_5_2_1 <= 1
0 <= a_2_5_2_2 <= 1
0 <= a_2_5_2_3 <= 1
0 <= a_2_5_2_4 <= 1
0 <= a_2_5_2_5 <= 1
Binaries
a_0_0
a_0_1
a_0_2
a_0_3
a_0_4
a_0_5
a_1_0
a_1_1
a_1_2
a_1_3
a_1_4
a_1_5
a_2_0
a_2_1
a_2_2
a_2_3
a_2_4
a_2_5
a_0_0_0_0
a_0_0_0_1
a_0_0_0_2
a_0_0_0_3
a_0_0_0_4
a_0_0_0_5
a_0_1_0_0
a_0_1_0_1
a_0_1_0_2
a_0_1_0_3
a_0_1_0_4
a_0_1_0_5
a_0_2_0_0
a_0_2_0_1
a_0_2_0_2
a_0_2_0_3
a_0_2_0_4
a_0_2_0_5
a_0_3_0_0
a_0_3_0_1
a_0_3_0_2
a_0_3_0_3
a_0_3_0_4
a_0_3_0_5
a_0_4_0_0
a_0_4_0_1
a_0_4_0_2
a_0_4_0_3
a_0_4_0_4
a_0_4_0_5
a_0_5_0_0
a_0_5_0_1
a_0_5_0_2
a_0_5_0_3
a_0_5_0_4
a_0_5_0_5
a_0_0_1_0
a_0_0_1_1
a_0_0_1_2
a_0_0_1_3
a_0_0_1_4
a_0_0_1_5
a_0_1_1_0
a_0_1_1_1
a_0_1_1_2
a_0_1_1_3
a_0_1_1_4
a_0_1_1_5
a_0_2_1_0
a_0_2_1_1
a_0_2_1_2
a_0_2_1_3
a_0_2_1_4
a_0_2_1_5
a_0_3_1_0
a_0_3_1_1
a_0_3_1_2
a_0_3_1_3
a_0_3_1_4
a_0_3_1_5
a_0_4_1_0
a_0_4_1_1
a_0_4_1_2
a_0_4_1_3
a_0_4_1_4
a_0_4_1_5
a_0_5_1_0
a_0_5_1_1
a_0_5_1_2
a_0_5_1_3
a_0_5_1_4
a_0_5_1_5
a_0_0_2_0
a_0_0_2_1
a_0_0_2_2
a_0_0_2_3
a_0_0_2_4
a_0_0_2_5
a_0_1_2_0
a_0_1_2_1
a_0_1_2_2
a_0_1_2_3
a_0_1_2_4
a_0_1_2_5
a_0_2_2_0
a_0_2_2_1
a_0_2_2_2
a_0_2_2_3
a_0_2_2_4
a_0_2_2_5
a_0_3_2_0
a_0_3_2_1
a_0_3_2_2
a_0_3_2_3
a_0_3_2_4
a_0_3_2_5
a_0_4_2_0
a_0_4_2_1
a_0_4_2_2
a_0_4_2_3
a_0_4_2_4
a_0_4_2_5
a_0_5_2_0
a_0_5_2_1
a_0_5_2_2
a_0_5_2_3
a_0_5_2_4
a_0_5_2_5
a_1_0_0_0
a_1_0_0_1
a_1_0_0_2
a_1_0_0_3
a_1_0_0_4
a_1_0_0_5
a_1_1_0_0
a_1_1_0_1
a_1_1_0_2
a_1_1_0_3
a_1_1_0_4
a_1_1_0_5
a_1_2_0_0
a_1_2_0_1
a_1_2_0_2
a_1_2_0_3
a_1_2_0_4
a_1_2_0_5
a_1_3_0_0
a_1_3_0_1
a_1_3_0_2
a_1_3_0_3
a_1_3_0_4
a_1_3_0_5
a_1_4_0_0
a_1_4_0_1
a_1_4_0_2
a_1_4_0_3
a_1_4_0_4
a_1_4_0_5
a_1_5_0_0
a_1_5_0_1
a_1_5_0_2
a_1_5_0_3
a_1_5_0_4
a_1_5_0_5
a_1_0_1_0
a_1_0_1_1
a_1_0_1_2
a_1_0_1_3
a_1_0_1_4
a_1_0_1_5
a_1_1_1_0
a_1_1_1_1
a_1_1_1_2
a_1_1_1_3
a_1_1_1_4
a_1_1_1_5
a_1_2_1_0
a_1_2_1_1
a_1_2_1_2
a_1_2_1_3
a_1_2_1_4
a_1_2_1_5
a_1_3_1_0
a_1_3_1_1
a_1_3_1_2
a_1_3_1_3
a_1_3_1_4
a_1_3_1_5
a_1_4_1_0
a_1_4_1_1
a_1_4_1_2
a_1_4_1_3
a_1_4_1_4
a_1_4_1_5
a_1_5_1_0
a_1_5_1_1
a_1_5_1_2
a_1_5_1_3
a_1_5_1_4
a_1_5_1_5
a_1_0_2_0
a_1_0_2_1
a_1_0_2_2
a_1_0_2_3
a_1_0_2_4
a_1_0_2_5
a_1_1_2_0
a_1_1_2_1
a_1_1_2_2
a_1_1_2_3
a_1_1_2_4
a_1_1_2_5
a_1_2_2_0
a_1_2_2_1
a_1_2_2_2
a_1_2_2_3
a_1_2_2_4
a_1_2_2_5
a_1_3_2_0
a_1_3_2_1
a_1_3_2_2
a_1_3_2_3
a_1_3_2_4
a_1_3_2_5
a_1_4_2_0
a_1_4_2_1
a_1_4_2_2
a_1_4_2_3
a_1_4_2_4
a_1_4_2_5
a_1_5_2_0
a_1_5_2_1
a_1_5_2_2
a_1_5_2_3
a_1_5_2_4
a_1_5_2_5
a_2_0_0_0
a_2_0_0_1
a_2_0_0_2
a_2_0_0_3
a_2_0_0_4
a_2_0_0_5
a_2_1_0_0
a_2_1_0_1
a_2_1_0_2
a_2_1_0_3
a_2_1_0_4
a_2_1_0_5
a_2_2_0_0
a_2_2_0_1
a_2_2_0_2
a_2_2_0_3
a_2_2_0_4
a_2_2_0_5
a_2_3_0_0
a_2_3_0_1
a_2_3_0_2
a_2_3_0_3
a_2_3_0_4
a_2_3_0_5
a_2_4_0_0
a_2_4_0_1
a_2_4_0_2
a_2_4_0_3
a_2_4_0_4
a_2_4_0_5
a_2_5_0_0
a_2_5_0_1
a_2_5_0_2
a_2_5_0_3
a_2_5_0_4
a_2_5_0_5
a_2_0_1_0
a_2_0_1_1
a_2_0_1_2
a_2_0_1_3
a_2_0_1_4
a_2_0_1_5
a_2_1_1_0
a_2_1_1_1
a_2_1_1_2
a_2_1_1_3
a_2_1_1_4
a_2_1_1_5
a_2_2_1_0
a_2_2_1_1
a_2_2_1_2
a_2_2_1_3
a_2_2_1_4
a_2_2_1_5
a_2_3_1_0
a_2_3_1_1
a_2_3_1_2
a_2_3_1_3
a_2_3_1_4
a_2_3_1_5
a_2_4_1_0
a_2_4_1_1
a_2_4_1_2
a_2_4_1_3
a_2_4_1_4
a_2_4_1_5
a_2_5_1_0
a_2_5_1_1
a_2_5_1_2
a_2_5_1_3
a_2_5_1_4
a_2_5_1_5
a_2_0_2_0
a_2_0_2_1
a_2_0_2_2
a_2_0_2_3
a_2_0_2_4
a_2_0_2_5
a_2_1_2_0
a_2_1_2_1
a_2_1_2_2
a_2_1_2_3
a_2_1_2_4
a_2_1_2_5
a_2_2_2_0
a_2_2_2_1
a_2_2_2_2
a_2_2_2_3
a_2_2_2_4
a_2_2_2_5
a_2_3_2_0
a_2_3_2_1
a_2_3_2_2
a_2_3_2_3
a_2_3_2_4
a_2_3_2_5
a_2_4_2_0
a_2_4_2_1
a_2_4_2_2
a_2_4_2_3
a_2_4_2_4
a_2_4_2_5
a_2_5_2_0
a_2_5_2_1
a_2_5_2_2
a_2_5_2_3
a_2_5_2_4
a_2_5_2_5
End